;; Preprocessed for Astral solver
(set-info :status unsat)
;; variables
(declare-const x0 Loc)
(declare-const x1 Loc)
(declare-const x2 Loc)
(declare-const x3 Loc)
(declare-const x4 Loc)
(declare-const x5 Loc)
(declare-const x6 Loc)
(declare-const x7 Loc)
(declare-const x8 Loc)
(declare-const x9 Loc)
(declare-const x10 Loc)
(declare-const x11 Loc)
(declare-const x12 Loc)
(declare-const x13 Loc)
(declare-const x14 Loc)
(declare-const x15 Loc)

(assert 
		(sep 
			(= nil nil)
			(distinct x8 x9)
			(distinct x1 x6)
			(distinct x4 x8)
			(distinct x3 x6)
			(distinct x3 x11)
			(distinct x2 x6)
			(distinct x5 x8)
			(distinct x5 x7)
		(sep 
			(ls x5 x6 )
			(ls x10 x2 )
			(ls x1 x7 )
			(ls x1 x8 )
			(ls x4 x6 )
			(ls x8 x1 )
			(ls x2 x11 )
			(ls x2 x8 )
			(ls x9 x3 )
			(ls x3 x2 )
			(ls x3 x8 )
			(ls x11 x10 )
			(ls x6 x5 )
			(ls x6 x10 )
			(ls x6 x7 )
		)

		)

)

(check-sat)
